
(set-logic ALL) 

(declare-datatype MyList ((Nil) (Cons (head Real) (tail MyList)) )) 
(declare-fun l0 () MyList) 
(declare-fun l1 () MyList) 
(declare-fun l2 () MyList) 
(declare-fun l3 () MyList) 
(declare-fun i0 () Real) 
(declare-fun i1 () Real) 
(assert (and (= l0 Nil) (= l3 l0)) )
(assert (is-Nil Nil) )
(assert (is-Nil l3) )
(assert (= l2 l3) )
(assert (not (= l0 Nil)) )
(assert (not (= l1 Nil)) )
(assert (is-Nil Nil) )
(assert (is-Cons Nil) )
(check-sat)
